Traveling Salesman Problem/TSP_generados/Aleatorio1621103310_9.tsp
NAME: Aleatorio1621103310_9.tsp
COMMENT: Randomly generated scenario
TYPE: TSP
DIMENSION: 9
EDGE_WEIGHT_TYPE: ATT
NODE_COORD_SECTION
1 38.59 30.05
2 42.96 31.01
3 18.61 22.84
4 30.67 21.07
5 27.08 6.29
6 23.08 42.65
7 49.69 18.72
8 48.69 10.73
9 10.39 3.12
