Traveling Salesman Problem/TSP_generados/Aleatorio1621103310_9.opt.tour
NAME: Aleatorio1621103310_9.opt.tour
COMMENT: Optimal solution for Aleatorio1621103310_9 (141.16821282654493)
TYPE: TOUR
DIMENSION: 9
TOUR_SECTION
1 2 7 8 4 5 9 3 6
-1
EOF
